NAME : ../File/prFile/tspFile/tsp_file45.tsp.462.tour
COMMENT : Length = 462
COMMENT : Found by LKH-3 [Keld Helsgaun] Wed Jun 14 15:57:59 2023
TYPE : TOUR
DIMENSION : 30
TOUR_SECTION
1
16
7
5
27
2
29
6
21
12
22
17
13
23
26
8
3
25
11
10
14
4
9
20
19
15
24
28
18
30
-1
EOF
